6046
1 0 0 0 0 0 1 0 0 0 0 0 0 1 0 0 0 0 0 1 0 1 0 1 0 0 0 1 1 0 
6 19 6 23 13 19 0 21 27 27 23 23 13 0 6 6 21 21 21 0 0 0 19 19 19 13 27 6 27 27 28 23 13 13 0 0 23 27 21 6 27 27 28 23 27 13 13 0 0 6 21 0 0 6 6 6 19 19 23 27 23 27 23 28 27 28 28 27 28 28 